%nprocshared=64
%mem=64GB
%chk=OH_AGE_TEABr_TS_QST3_TEA_relax.chk
# opt=(calcall,tight,qst3,cartesian) freq b3lyp/gen nosymm
scf=(qc,maxcycle=1024) pseudo=read

OH_AGE_TEABr_opt_freq_TEA_relax_6_31Gdp

0 1
 Zn               0   -2.60538200   -0.14661000   -0.19186800
 O                0   -1.10013600   -1.24593900   -1.00279300
 O                0    0.86233300    0.21641700   -0.74690200
 O               -1   -1.93418100   -0.63580500    1.71894200
 O               -1   -0.37148100    1.00758700    1.91073600
 C               -1   -1.06524800    0.05718000    2.34922500
 Zn               0   -0.21704800    1.86314200   -0.12611600
 O               -1   -1.62477700    3.21032900    0.53891700
 O               -1   -3.33418300    1.71957100    0.71786000
 O               -1   -1.08202800    1.97830500   -2.05404600
 O               -1   -2.98401800    0.73492700   -2.00482300
 C               -1   -2.80662900    2.86122300    0.83802100
 C               -1   -2.14387000    1.51785900   -2.55077100
 H               -1   -0.90512500   -0.23386300    3.40878300
 H               -1   -3.45536000    3.65679600    1.25683500
 H               -1   -2.38151000    1.83038100   -3.58718200
 C               -1    2.58295700    2.85040100   -0.54934200
 C               -1    3.69654900    3.69575400   -0.53560000
 C               -1    3.55444300    4.99044000   -0.02108500
 C               -1    2.30235200    5.39740900    0.45764500
 C               -1    1.23687000    4.49353500    0.40906400
 N               -1    1.37944600    3.24518000   -0.08231500
 H               -1    4.40471400    5.67189200    0.00575100
 H               -1    2.62160200    1.83016000   -0.93159600
 H               -1    4.65025800    3.33913100   -0.92044400
 H               -1    2.14776500    6.39555900    0.86365400
 H               -1    0.23845800    4.74807300    0.76200700
 C               -1   -4.71939400   -1.98287100    1.01519800
 C               -1   -5.87476200   -2.76642100    1.08530300
 C               -1   -6.73273100   -2.80409300   -0.02121100
 C               -1   -6.40566300   -2.05582100   -1.15894800
 C               -1   -5.23272000   -1.29522300   -1.15175300
 N               -1   -4.40689600   -1.26392100   -0.08393500
 H               -1   -7.64093700   -3.40601700    0.00309000
 H               -1   -4.01230500   -1.91093000    1.84081600
 H               -1   -6.09114100   -3.33139000    1.99017400
 H               -1   -7.04450600   -2.05520500   -2.04021700
 H               -1   -4.92416700   -0.68913500   -2.00270500
 H                0    0.06841800   -0.50480400   -0.92942600
 H                0    1.47128100   -0.18100900   -0.10136100
 H                0   -0.94187900   -2.03926100   -0.47551300
 C                0    2.84593500    0.35699700    7.73999000
 C                0    2.80895000    1.11296400    6.63909300
 C                0    2.39723500    0.61815900    5.28367800
 O                0    3.43556700    0.91295400    4.34698600
 C                0    3.04990300    0.76236000    2.97150600
 C                0    3.16008400   -0.68221200    2.51478200
 C                0    4.17036400   -1.11228400    1.53259900
 O                0    2.78861200   -0.91695300    1.14745300
 H                0    3.10842300    0.77202300    8.70914800
 H                0    2.59958200   -0.70237100    7.71172000
 H                0    3.06066400    2.17192100    6.69423900
 H                0    1.47251400    1.12636800    4.96618900
 H                0    2.18884500   -0.46142000    5.32258100
 H                0    3.72951100    1.38966300    2.38777500
 H                0    2.01807300    1.11143400    2.82755000
 H                0    2.76001200   -1.42815100    3.20453400
 H                0    4.48845400   -2.15429700    1.51087100
 H                0    4.87069900   -0.37617200    1.13835100
 N                0    8.29458300    2.24355600    4.70601100
 C                0    7.28868800    3.31429800    4.23188500
 C                0    5.93107700    3.36873300    4.92111500
 H                0    7.14710000    3.13001000    3.16081300
 H                0    7.81157300    4.26488900    4.37514100
 H                0    5.38769300    4.19011700    4.44182400
 H                0    5.32723500    2.47339900    4.77114800
 H                0    5.98768700    3.60013900    5.98907000
 C                0    8.33768100    2.22578900    6.22334000
 C                0    9.40217500    1.32974500    6.85209400
 H                0    7.34730700    1.91832000    6.55472000
 H                0    8.48187100    3.26552200    6.53214000
 H                0    9.24546700    1.33717100    7.93527200
 H                0    9.32536600    0.29157600    6.51925000
 H                0   10.41997600    1.68194200    6.66921800
 C                0    9.67545600    2.66356400    4.18765800
 C                0    9.76828300    2.97722300    2.69714300
 H                0   10.35096400    1.84625100    4.44285200
 H                0    9.96173400    3.53616000    4.78343700
 H                0   10.83140500    3.07217700    2.45215500
 H                0    9.33209200    2.20338700    2.06134900
 H                0    9.28019800    3.91806700    2.43715200
 C                0    7.97590400    0.85258100    4.11927500
 C                0    6.86307000    0.05280900    4.78470600
 H                0    8.91607000    0.29857600    4.17129200
 H                0    7.72001800    1.02817100    3.06747700
 H                0    6.81222800   -0.89811100    4.24378200
 H                0    7.05603800   -0.18503800    5.83538900
 H                0    5.87832000    0.51143700    4.69332700
 Br               0    6.57464700    1.88254700    0.98695300

OH_AGE_TEABr_ro_opt_freq_TEA_relax_6_31Gdp_rere

0 1
 Zn               0   -2.60288200   -0.15926600   -0.18894300
 O                0   -1.21181200   -1.38408300   -0.97787600
 O                0    0.93988200    0.28019400   -0.76294800
 O               -1   -1.94049300   -0.63788000    1.72455200
 O               -1   -0.37269300    1.01087500    1.91697200
 C               -1   -1.06872400    0.05736700    2.35689200
 Zn               0   -0.18303900    1.79819900   -0.07726300
 O               -1   -1.63007900    3.22080600    0.54067600
 O               -1   -3.34506400    1.72518300    0.72020200
 O               -1   -1.08555900    1.98476100   -2.06074900
 O               -1   -2.99375600    0.73732500   -2.01136600
 C               -1   -2.81578800    2.87056000    0.84075600
 C               -1   -2.15086700    1.52281200   -2.55909500
 H               -1   -0.90807900   -0.23462600    3.41990800
 H               -1   -3.46663600    3.66873000    1.26093700
 H               -1   -2.38928200    1.83635500   -3.59888800
 C               -1    2.59138700    2.85970400   -0.55113500
 C               -1    3.70861200    3.70781500   -0.53734800
 C               -1    3.56604300    5.00672600   -0.02115400
 C               -1    2.30986500    5.41502300    0.45913800
 C               -1    1.24090600    4.50819900    0.41039900
 N               -1    1.38394800    3.25577100   -0.08258400
 H               -1    4.41908800    5.69040200    0.00577000
 H               -1    2.63015800    1.83613200   -0.93463600
 H               -1    4.66543400    3.35002800   -0.92344800
 H               -1    2.15477400    6.41643100    0.86647300
 H               -1    0.23923600    4.76356800    0.76449300
 C               -1   -4.73479500   -1.98934200    1.01851100
 C               -1   -5.89393400   -2.77544900    1.08884500
 C               -1   -6.75470300   -2.81324400   -0.02128000
 C               -1   -6.42656800   -2.06253000   -1.16273000
 C               -1   -5.24979700   -1.29945000   -1.15551100
 N               -1   -4.42127800   -1.26804500   -0.08420900
 H               -1   -7.66587300   -3.41713200    0.00310000
 H               -1   -4.02539900   -1.91716600    1.84682300
 H               -1   -6.11101900   -3.34226200    1.99666900
 H               -1   -7.06749600   -2.06191200   -2.04687500
 H               -1   -4.94023600   -0.69138400   -2.00924000
 H                0    0.25653700   -0.43342600   -0.84686300
 H                0    2.22537700   -0.26567600   -0.52509800
 H                0   -1.05837200   -2.05765500   -0.30162900
 C                0    7.18778400   -1.92344700    5.24461300
 C                0    6.63253600   -2.40103200    4.12798500
 C                0    6.46771800   -1.61512500    2.86074700
 O                0    5.11593000   -1.70330900    2.43138700
 C                0    4.88662500   -1.08688200    1.17055200
 C                0    3.41640300   -1.25156200    0.78513000
 C                0    2.93941400   -2.70286700    0.82777600
 O                0    3.21771100   -0.63829200   -0.45697700
 H                0    7.31380500   -2.54291500    6.12790300
 H                0    7.53651100   -0.89510300    5.31371500
 H                0    6.27861000   -3.43055200    4.08713500
 H                0    7.12609900   -2.02877800    2.07582000
 H                0    6.75722300   -0.56294100    3.01706500
 H                0    5.52437200   -1.54260900    0.39737100
 H                0    5.11451000   -0.01121600    1.21656700
 H                0    2.80776000   -0.75953500    1.56698200
 H                0    1.88931800   -2.77651900    0.54898800
 H                0    3.12295400   -3.16467400    1.79689100
 N                0    1.89973000   -1.26610700   -4.44213300
 C                0    0.95998300   -0.15307200   -3.90902100
 C                0    1.16141100    1.25796200   -4.45424400
 H                0    1.05659500   -0.14150200   -2.81728600
 H                0   -0.05071100   -0.49119200   -4.14702800
 H                0    0.49308700    1.89013600   -3.86034600
 H                0    2.17484300    1.64043400   -4.31714100
 H                0    0.88466300    1.36496300   -5.50765300
 C                0    2.23111900   -1.00004600   -5.90058900
 C                0    3.13060500   -2.01991800   -6.59601300
 H                0    2.69680800   -0.01712600   -5.93811600
 H                0    1.26923500   -0.92592200   -6.41549200
 H                0    3.32178600   -1.65127200   -7.60900900
 H                0    4.09947300   -2.13103900   -6.10268000
 H                0    2.67217300   -3.00647100   -6.69269500
 C                0    1.14467900   -2.60036500   -4.36303500
 C                0    0.66898300   -3.02793200   -2.98149500
 H                0    1.82057200   -3.35072100   -4.77683800
 H                0    0.29807500   -2.48900300   -5.04724800
 H                0    0.11817000   -3.96554000   -3.12080700
 H                0    1.50433300   -3.24525500   -2.31125100
 H                0   -0.01477500   -2.32020000   -2.49504200
 C                0    3.16084300   -1.38886200   -3.58196400
 C                0    4.15819100   -0.24166900   -3.66422800
 H                0    3.63306300   -2.32848400   -3.87703200
 H                0    2.83344500   -1.48765700   -2.54719600
 H                0    4.98778900   -0.50917000   -3.00406600
 H                0    4.56250600   -0.07490400   -4.66765900
 H                0    3.74375300    0.69071700   -3.27960300
 Br               0    3.88560000   -3.88611100   -0.48621500

OH_AGE_TEABr_TS_QST3_TEA_relax

0 1
 Zn               0   -2.60288200   -0.15926600   -0.18894300
 O                0   -1.21181200   -1.38408300   -0.97787600
 O                0    0.93988200    0.28019400   -0.76294800
 O               -1   -1.94049300   -0.63788000    1.72455200
 O               -1   -0.37269300    1.01087500    1.91697200
 C               -1   -1.06872400    0.05736700    2.35689200
 Zn               0   -0.18303900    1.79819900   -0.07726300
 O               -1   -1.63007900    3.22080600    0.54067600
 O               -1   -3.34506400    1.72518300    0.72020200
 O               -1   -1.08555900    1.98476100   -2.06074900
 O               -1   -2.99375600    0.73732500   -2.01136600
 C               -1   -2.81578800    2.87056000    0.84075600
 C               -1   -2.15086700    1.52281200   -2.55909500
 H               -1   -0.90807900   -0.23462600    3.41990800
 H               -1   -3.46663600    3.66873000    1.26093700
 H               -1   -2.38928200    1.83635500   -3.59888800
 C               -1    2.59138700    2.85970400   -0.55113500
 C               -1    3.70861200    3.70781500   -0.53734800
 C               -1    3.56604300    5.00672600   -0.02115400
 C               -1    2.30986500    5.41502300    0.45913800
 C               -1    1.24090600    4.50819900    0.41039900
 N               -1    1.38394800    3.25577100   -0.08258400
 H               -1    4.41908800    5.69040200    0.00577000
 H               -1    2.63015800    1.83613200   -0.93463600
 H               -1    4.66543400    3.35002800   -0.92344800
 H               -1    2.15477400    6.41643100    0.86647300
 H               -1    0.23923600    4.76356800    0.76449300
 C               -1   -4.73479500   -1.98934200    1.01851100
 C               -1   -5.89393400   -2.77544900    1.08884500
 C               -1   -6.75470300   -2.81324400   -0.02128000
 C               -1   -6.42656800   -2.06253000   -1.16273000
 C               -1   -5.24979700   -1.29945000   -1.15551100
 N               -1   -4.42127800   -1.26804500   -0.08420900
 H               -1   -7.66587300   -3.41713200    0.00310000
 H               -1   -4.02539900   -1.91716600    1.84682300
 H               -1   -6.11101900   -3.34226200    1.99666900
 H               -1   -7.06749600   -2.06191200   -2.04687500
 H               -1   -4.94023600   -0.69138400   -2.00924000
 H                0    0.25653700   -0.43342600   -0.84686300
 H                0    2.08861603   -0.23837727   -0.53147429
 H                0   -1.05837200   -2.05765500   -0.30162900
 C                0    7.83967573   -2.47117304    4.51123470
 C                0    7.04734531   -2.69638719    3.46017002
 C                0    6.55654445   -1.63045340    2.52550077
 O                0    5.14469692   -1.73456145    2.40178622
 C                0    4.59837092   -0.83943000    1.44129911
 C                0    3.08471357   -1.03976979    1.36430726
 C                0    2.67927023   -2.49203966    1.11500562
 O                0    3.19719348   -0.70022799   -0.17600742
 H                0    8.19489675   -3.28199956    5.14068009
 H                0    8.16132984   -1.46666911    4.77841904
 H                0    6.72749761   -3.70979060    3.22026431
 H                0    7.01929222   -1.76301584    1.53102782
 H                0    6.84101104   -0.63115396    2.89403709
 H                0    5.04529700   -1.01745212    0.45095452
 H                0    4.79571614    0.20491399    1.72679305
 H                0    2.66693380   -0.82628018    2.36616138
 H                0    1.82418249   -2.76090055    0.58565442
 H                0    3.19062231   -3.41070198    1.40988580
 N                0    1.89973000   -1.26610700   -4.44213300
 C                0    0.95998300   -0.15307200   -3.90902100
 C                0    1.16141100    1.25796200   -4.45424400
 H                0    1.05659500   -0.14150200   -2.81728600
 H                0   -0.05071100   -0.49119200   -4.14702800
 H                0    0.49308700    1.89013600   -3.86034600
 H                0    2.17484300    1.64043400   -4.31714100
 H                0    0.88466300    1.36496300   -5.50765300
 C                0    2.23111900   -1.00004600   -5.90058900
 C                0    3.13060500   -2.01991800   -6.59601300
 H                0    2.69680800   -0.01712600   -5.93811600
 H                0    1.26923500   -0.92592200   -6.41549200
 H                0    3.32178600   -1.65127200   -7.60900900
 H                0    4.09947300   -2.13103900   -6.10268000
 H                0    2.67217300   -3.00647100   -6.69269500
 C                0    1.14467900   -2.60036500   -4.36303500
 C                0    0.66898300   -3.02793200   -2.98149500
 H                0    1.82057200   -3.35072100   -4.77683800
 H                0    0.29807500   -2.48900300   -5.04724800
 H                0    0.11817000   -3.96554000   -3.12080700
 H                0    1.50433300   -3.24525500   -2.31125100
 H                0   -0.01477500   -2.32020000   -2.49504200
 C                0    3.16084300   -1.38886200   -3.58196400
 C                0    4.15819100   -0.24166900   -3.66422800
 H                0    3.63306300   -2.32848400   -3.87703200
 H                0    2.83344500   -1.48765700   -2.54719600
 H                0    4.98778900   -0.50917000   -3.00406600
 H                0    4.56250600   -0.07490400   -4.66765900
 H                0    3.74375300    0.69071700   -3.27960300
 Br               0    4.01204061   -4.61268319   -1.18586203

Zn 0
LanL2DZ
****
C H O N Br 0
6-31+G(d,p)
****

Zn 0
LanL2DZ





