%nprocshared=64
%mem=64GB
%chk=OH_AGC_TEABr_opt_freq_TEA_relax_6_31Gdp.chk
# opt=(calcall,tight,cartesian) freq b3lyp/gen nosymm
scf=(qc,maxcycle=1024) pseudo=read

OH_AGC_TEABr_opt_freq_TEA_relax_6_31Gdp

0 1
 Zn               0   -2.69178100   -0.12500200   -0.15056800
 O                0   -1.20497200   -1.34654700   -0.90813900
 O                0    0.71793100    0.19386900   -0.70313600
 O               -1   -1.94049300   -0.63788000    1.72455200
 O               -1   -0.37269300    1.01087500    1.91697200
 C               -1   -1.06872400    0.05736700    2.35689200
 Zn               0   -0.18260000    1.89136900   -0.07698300
 O               -1   -1.63007900    3.22080600    0.54067600
 O               -1   -3.34506400    1.72518300    0.72020200
 O               -1   -1.08555900    1.98476100   -2.06074900
 O               -1   -2.99375600    0.73732500   -2.01136600
 C               -1   -2.81578800    2.87056000    0.84075600
 C               -1   -2.15086700    1.52281200   -2.55909500
 H               -1   -0.90807900   -0.23462600    3.41990800
 H               -1   -3.46663600    3.66873000    1.26093700
 H               -1   -2.38928200    1.83635500   -3.59888800
 C               -1    2.59138700    2.85970400   -0.55113500
 C               -1    3.70861200    3.70781500   -0.53734800
 C               -1    3.56604300    5.00672600   -0.02115400
 C               -1    2.30986500    5.41502300    0.45913800
 C               -1    1.24090600    4.50819900    0.41039900
 N               -1    1.38394800    3.25577100   -0.08258400
 H               -1    4.41908800    5.69040200    0.00577000
 H               -1    2.63015800    1.83613200   -0.93463600
 H               -1    4.66543400    3.35002800   -0.92344800
 H               -1    2.15477400    6.41643100    0.86647300
 H               -1    0.23923600    4.76356800    0.76449300
 C               -1   -4.73479500   -1.98934200    1.01851100
 C               -1   -5.89393400   -2.77544900    1.08884500
 C               -1   -6.75470300   -2.81324400   -0.02128000
 C               -1   -6.42656800   -2.06253000   -1.16273000
 C               -1   -5.24979700   -1.29945000   -1.15551100
 N               -1   -4.42127800   -1.26804500   -0.08420900
 H               -1   -7.66587300   -3.41713200    0.00310000
 H               -1   -4.02539900   -1.91716600    1.84682300
 H               -1   -6.11101900   -3.34226200    1.99666900
 H               -1   -7.06749600   -2.06191200   -2.04687500
 H               -1   -4.94023600   -0.69138400   -2.00924000
 H                0   -0.02800400   -0.55704700   -0.85193100
 H                0    1.63959400   -0.12026200   -0.60943000
 H                0   -1.08825800   -2.05478800   -0.24206900
 C                0    9.54286400   -5.58333700   -5.39018900
 C                0    8.41921400   -5.20996000   -4.76841500
 C                0    7.82287300   -3.84010200   -4.84556400
 O                0    7.62824300   -3.36390600   -3.46385600
 C                0    6.89081800   -2.11509200   -3.36727500
 C                0    6.28881500   -2.16908600   -1.97500400
 C                0    5.22626300   -3.28063600   -1.81236900
 O                0    5.51849100   -0.91030800   -1.71799200
 H                0    9.91679700   -6.60138800   -5.33860600
 H                0   10.12860700   -4.88442900   -5.98292800
 H                0    7.85096600   -5.92522500   -4.17633000
 H                0    6.83997600   -3.86024500   -5.33903000
 H                0    8.48478000   -3.14818800   -5.38624100
 H                0    6.09074700   -2.07185300   -4.11654400
 H                0    7.55872300   -1.25020600   -3.47576700
 H                0    7.06867000   -2.21585400   -1.21225900
 H                0    5.51448800   -4.06829400   -1.12030100
 H                0    4.88403400   -3.67448600   -2.77396000
 N                0    0.16452400   -2.31128400   -4.22570100
 C                0    1.36420800   -1.47807800   -3.68501100
 C                0    1.43684200   -0.00779100   -4.09696100
 H                0    2.25793700   -2.02410800   -4.00543700
 H                0    1.27447300   -1.52287500   -2.60034500
 H                0    2.39703600    0.36506800   -3.72294100
 H                0    1.43034200    0.14662500   -5.17740900
 H                0    0.66105900    0.60093600   -3.62751700
 C                0   -1.10572100   -1.44429700   -4.22699400
 C                0   -2.37058100   -2.13014300   -4.74111100
 H                0   -0.88362600   -0.56936400   -4.83662200
 H                0   -1.24116900   -1.13549000   -3.18685500
 H                0   -3.18966400   -1.40871600   -4.64676200
 H                0   -2.30415800   -2.42055300   -5.79421900
 H                0   -2.64686000   -3.00677200   -4.14889100
 C                0   -0.07814100   -3.48448100   -3.23757800
 C                0    1.16527500   -4.27590600   -2.83076300
 H                0   -0.79863900   -4.13807200   -3.73466600
 H                0   -0.55614400   -3.01811600   -2.37033800
 H                0    0.82471600   -5.18082700   -2.31319300
 H                0    1.79139900   -4.57952900   -3.67479600
 H                0    1.80232900   -3.71902400   -2.13948500
 C                0    0.47593300   -2.91485300   -5.60875500
 C                0    0.71079200   -1.92321900   -6.74402800
 H                0   -0.36354000   -3.57782800   -5.83236100
 H                0    1.38831800   -3.50631500   -5.48423200
 H                0    0.75396500   -2.49794300   -7.67590600
 H                0   -0.08234400   -1.17626400   -6.85234200
 H                0    1.67795600   -1.42795200   -6.63748700
 Br               0    4.01976700   -3.51913200   -5.28738600
 C                0    4.26435800   -1.21134600   -1.25848500
 O                0    3.42831500   -0.36424100   -0.94059700
 O                0    4.06238000   -2.56005400   -1.19405500

Zn 0
LanL2DZ
****
C H O Br N 0
6-31+G(d,p)
****

Zn 0
LanL2DZ



