%nprocshared=64
%mem=64GB
%chk=OH_AGC_opt_freq_6_31Gdp_re.chk
# opt=(calcall,tight,cartesian) freq b3lyp/gen nosymm
scf=(qc,maxcycle=1024) pseudo=read

OH_AGC_opt_freq_6_31Gdp_re

0 1
 Zn               0   -2.69938900   -0.11393800   -0.14051300
 O                0   -1.14991200   -1.20164600   -1.01029800
 O                0    0.79048900    0.22656800   -0.64817200
 O               -1   -1.94049300   -0.63788000    1.72455200
 O               -1   -0.37269300    1.01087500    1.91697200
 C               -1   -1.06872400    0.05736700    2.35689200
 Zn               0   -0.18759500    1.89226000   -0.08956200
 O               -1   -1.63007900    3.22080600    0.54067600
 O               -1   -3.34506400    1.72518300    0.72020200
 O               -1   -1.08555900    1.98476100   -2.06074900
 O               -1   -2.99375600    0.73732500   -2.01136600
 C               -1   -2.81578800    2.87056000    0.84075600
 C               -1   -2.15086700    1.52281200   -2.55909500
 H               -1   -0.90807900   -0.23462600    3.41990800
 H               -1   -3.46663600    3.66873000    1.26093700
 H               -1   -2.38928200    1.83635500   -3.59888800
 C               -1    2.59138700    2.85970400   -0.55113500
 C               -1    3.70861200    3.70781500   -0.53734800
 C               -1    3.56604300    5.00672600   -0.02115400
 C               -1    2.30986500    5.41502300    0.45913800
 C               -1    1.24090600    4.50819900    0.41039900
 N               -1    1.38394800    3.25577100   -0.08258400
 H               -1    4.41908800    5.69040200    0.00577000
 H               -1    2.63015800    1.83613200   -0.93463600
 H               -1    4.66543400    3.35002800   -0.92344800
 H               -1    2.15477400    6.41643100    0.86647300
 H               -1    0.23923600    4.76356800    0.76449300
 C               -1   -4.73479500   -1.98934200    1.01851100
 C               -1   -5.89393400   -2.77544900    1.08884500
 C               -1   -6.75470300   -2.81324400   -0.02128000
 C               -1   -6.42656800   -2.06253000   -1.16273000
 C               -1   -5.24979700   -1.29945000   -1.15551100
 N               -1   -4.42127800   -1.26804500   -0.08420900
 H               -1   -7.66587300   -3.41713200    0.00310000
 H               -1   -4.02539900   -1.91716600    1.84682300
 H               -1   -6.11101900   -3.34226200    1.99666900
 H               -1   -7.06749600   -2.06191200   -2.04687500
 H               -1   -4.94023600   -0.69138400   -2.00924000
 H                0   -0.19782700   -0.63906600   -0.90530700
 H                0    1.39958300   -0.14384400    0.01936900
 H                0   -1.03312500   -2.14649400   -0.81315300
 C                0   -0.91027500    2.61523200   -7.77363000
 C                0   -0.81701300    1.93132900   -6.62849900
 C                0    0.19305600    2.20715600   -5.55742600
 O                0    0.84872100    0.94285000   -5.21912600
 C                0    1.68969400    1.02999200   -4.03672700
 C                0    2.26518300   -0.36195000   -3.86095200
 C                0    1.21529200   -1.44057900   -3.50801100
 O                0    3.16692600   -0.35127000   -2.68456700
 H                0   -1.68032200    2.40125800   -8.50821200
 H                0   -0.21993900    3.41871500   -8.01976300
 H                0   -1.51086100    1.12176700   -6.40833900
 H                0   -0.28752300    2.60504300   -4.65068400
 H                0    0.94160000    2.93938300   -5.89592600
 H                0    1.10024400    1.30993000   -3.15698900
 H                0    2.49947600    1.75890600   -4.18455100
 H                0    2.86768700   -0.64213400   -4.72808800
 H                0    1.07288400   -2.18001500   -4.29348200
 H                0    0.26245500   -1.01985600   -3.18838900
 C                0    2.83139600   -1.37892900   -1.81155100
 O                0    3.38766900   -1.58967100   -0.74779400
 O                0    1.80637900   -2.13802000   -2.33981600

Zn 0
LanL2DZ
****
C H O N 0
6-31+G(d,p)
****

Zn 0
LanL2DZ



