%nprocshared=64
%mem=64GB
%chk=AGC_opt_freq_sin.chk
# opt=(calcall,tight,cartesian) freq b3lyp/gen nosymm
scf=(qc,maxcycle=1024) pseudo=read

AGC_opt_freq_sin

0 1
 C                 -1.45690700    4.59696700   -3.95432100
 C                 -1.28588000    4.18925000   -2.69463100
 C                 -0.33171100    4.82436500   -1.72783400
 O                  0.56267500    3.82536400   -1.24027200
 C                  1.24726800    4.20441400   -0.06377800
 C                  1.91775200    2.98753200    0.53893500
 C                  2.31642200    3.17332800    2.00989200
 O                  3.19578700    2.70288900   -0.09380300
 H                 -2.17864700    4.12233500   -4.61262500
 H                 -0.88237900    5.42202300   -4.37002500
 H                 -1.85865300    3.35176900   -2.29913900
 H                 -0.89517300    5.24489100   -0.87770100
 H                  0.22661600    5.64454700   -2.20578600
 H                  0.53204200    4.59506300    0.67800900
 H                  1.99903600    4.98503400   -0.26616800
 H                  1.28334800    2.11262900    0.39701300
 H                  1.63800300    2.66539400    2.69471300
 H                  2.41808100    4.22732300    2.29386800
 O                  5.18785100    1.88539800    0.60795900
 C                  4.09846900    2.34336100    0.84424000
 O                  3.61615700    2.55660700    2.09272800

C H O 0
6-31+G(d,p)
****



