%nprocshared=64
%mem=64GB
%chk=AGE_CO2_TS_QST3_opt_freq.chk
# opt=(calcall,tight,qst3,cartesian) freq b3lyp/gen nosymm
scf=(qc,maxcycle=1024) pseudo=read

AGE_CO2_opt_freq

0 1
 C                -10.75086300   -2.95581000   -1.21214900
 C                 -9.48250500   -2.64144700   -1.48667500
 C                 -8.38527500   -2.59783400   -0.46562000
 O                 -7.72151500   -1.33861900   -0.55395200
 C                 -6.61554100   -1.22855500    0.32684200
 C                 -6.06283500    0.17098100    0.20431100
 C                 -4.92631400    0.47906700   -0.67461900
 O                 -4.74761600    0.35866000    0.74974500
 H                -11.50566900   -3.00599300   -1.99142100
 H                -11.07798100   -3.17740400   -0.19848400
 H                 -9.18094000   -2.41248400   -2.50800000
 H                 -7.65693800   -3.40523300   -0.65903400
 H                 -8.78977000   -2.74869100    0.54780400
 H                 -5.83198600   -1.96202700    0.07767500
 H                 -6.93022500   -1.41094100    1.36766000
 H                 -6.76749000    0.96908400    0.43988500
 H                 -4.80386200    1.48663700   -1.06828100
 H                 -4.47240600   -0.31820100   -1.26176900
 C                 -3.53605200    1.52912300    3.06274100
 O                 -4.46224800    1.21722200    3.70610700
 O                 -2.59284600    1.85901200    2.45485200

AGC_opt_freq_sin

0 1
 C                 -1.22891600    4.60656300   -4.02687900
 C                 -1.25469500    4.19190400   -2.75818900
 C                 -0.40478000    4.77201200   -1.66805900
 O                  0.30013300    3.71277400   -1.01866100
 C                  1.05007100    4.14284000    0.09469200
 C                  1.82289600    2.96564300    0.65508500
 C                  2.46420700    3.24010400    2.02574600
 O                  2.96901600    2.65951800   -0.16726100
 H                 -1.88518500    4.17741900   -4.77814400
 H                 -0.55094700    5.38998700   -4.35849500
 H                 -1.93267800    3.39644700   -2.45191900
 H                 -1.03960400    5.28956000   -0.92692200
 H                  0.30481000    5.50793500   -2.07632300
 H                  0.38354600    4.53716100    0.88388600
 H                  1.75795200    4.94139200   -0.18077600
 H                  1.17951800    2.07898800    0.66990800
 H                  1.91639700    2.79647300    2.85873700
 H                  2.61293000    4.31090300    2.21170000
 C                  4.04185200    2.36990700    0.61648600
 O                  5.09622000    1.96610800    0.21868800
 O                  3.74741600    2.60684300    1.92797500

AGE_CO2_TS_QST3_opt_freq

0 1
 C                -10.75086300   -2.95581000   -1.21214900
 C                 -9.48250500   -2.64144700   -1.48667500
 C                 -8.38527500   -2.59783400   -0.46562000
 O                 -7.72151500   -1.33861900   -0.55395200
 C                 -6.61554100   -1.22855500    0.32684200
 C                 -6.06283500    0.17098100    0.20431100
 C                 -4.87666919    0.52416656   -0.84021899
 O                 -4.96498906    0.20005611    1.32083502
 H                -11.50566900   -3.00599300   -1.99142100
 H                -11.07798100   -3.17740400   -0.19848400
 H                 -9.18094000   -2.41248400   -2.50800000
 H                 -7.65693800   -3.40523300   -0.65903400
 H                 -8.78977000   -2.74869100    0.54780400
 H                 -5.83198600   -1.96202700    0.07767500
 H                 -6.93022500   -1.41094100    1.36766000
 H                 -6.76749000    0.96908400    0.43988500
 H                 -4.75421719    1.53173656   -1.23388099
 H                 -4.42276119   -0.27310144   -1.42736899
 C                 -3.55882814    0.94193566    1.01810505
 O                 -2.99766435    0.51107945    2.18151559
 O                 -2.99951569    1.62089568    0.02105217

C H O 0
6-31+G(d,p)
****





