%nprocshared=64
%mem=64GB
%chk=paddle_new_AGC_opt_freq_6_31Gdp.chk
# opt=(calcall,tight,cartesian) freq b3lyp/gen nosymm
scf=(qc,maxcycle=1024) pseudo=read

paddle_new_AGC_opt_freq_6_31Gdp

0 1
 Zn              -1   -4.69448900   -2.52890500    2.32631700
 O               -1   -4.60002200   -0.93173400    3.63136000
 O                0   -2.33275800   -0.89783900    3.51334300
 O               -1   -3.77140000   -1.27973400    0.82823100
 O                0   -1.49877200   -1.12437200    0.68748500
 C               -1   -3.46122600   -0.46881500    3.94274200
 C               -1   -2.70353900   -0.84263900    0.32124300
 Zn               0   -1.42164200   -2.40362700    2.25914100
 O                0   -2.27425800   -3.95372100    0.99715400
 O               -1   -4.53935400   -4.11556100    1.01424600
 O                0   -1.31529900   -3.66585300    3.78733100
 O               -1   -3.59320900   -3.69442500    3.77058600
 C               -1   -3.38490300   -4.48477600    0.64137000
 C               -1   -2.46758200   -4.04160500    4.21874000
 H               -1   -3.45540800    0.38383400    4.64231600
 H               -1   -2.79073900   -0.14615300   -0.52756300
 H               -1   -3.34703500   -5.33553600   -0.05950100
 H               -1   -2.45196700   -4.74051100    5.06989100
 C               -1   -7.53384400   -1.75151400    3.14439100
 C               -1   -8.92519000   -1.77977000    3.20972700
 C               -1   -9.61549200   -2.73787000    2.46520700
 C               -1   -8.88945800   -3.63544200    1.68034300
 C               -1   -7.49931600   -3.54490100    1.66652400
 N               -1   -6.83448600   -2.61908400    2.38605700
 H               -1  -10.70018500   -2.78422700    2.49611100
 H               -1   -6.94294800   -1.03037100    3.70008100
 H               -1   -9.44924800   -1.06304200    3.83290300
 H               -1   -9.38506500   -4.39575000    1.08621400
 H               -1   -6.88161800   -4.21449400    1.07653900
 C                0    1.25054300    5.96816900    0.36907500
 C                0    1.40835800    4.72383800    0.83094600
 C                0    1.78170100    3.55077200   -0.02236900
 O                0    0.82512600    2.47760900    0.26088800
 C                0    1.02904900    1.25967300   -0.48186500
 C                0    2.12959100    0.37474200    0.10120900
 C                0    2.42194800   -0.89026700   -0.74281500
 O                0    1.65585400   -0.20362500    1.39354700
 H                0    1.00503500    6.79486600    1.02787800
 H                0    1.35968900    6.20927600   -0.68580300
 H                0    1.28047700    4.49934800    1.88764200
 H                0    2.80378000    3.21312200    0.21807500
 H                0    1.75313300    3.80783100   -1.09203400
 H                0    1.27342700    1.47771500   -1.53543600
 H                0    0.08022800    0.71722700   -0.43608900
 H                0    3.03116200    0.93753700    0.34160700
 H                0    3.48006800   -1.15255300   -0.78076800
 H                0    2.00347900   -0.84865500   -1.74839600
 C                0    1.29494300   -1.50918200    1.20314500
 O                0    0.69253500   -2.19529100    2.02413200
 O                0    1.71387400   -1.96963200   -0.01885400

Zn 0
LanL2DZ
****
C H O N 0
6-31+G(d,p)
****

Zn 0
LanL2DZ



